c Grafo no formato DIMACS 
p edge 60 148 
e 1 58 
e 1 52 
e 1 38 
e 1 22 
e 2 57 
e 2 42 
e 2 40 
e 2 38 
e 2 36 
e 2 35 
e 2 13 
e 3 42 
e 3 40 
e 3 17 
e 3 6 
e 4 59 
e 4 54 
e 4 49 
e 4 45 
e 4 40 
e 4 17 
e 4 15 
e 5 53 
e 5 52 
e 5 29 
e 5 23 
e 5 9 
e 6 30 
e 6 21 
e 6 9 
e 6 7 
e 7 37 
e 7 22 
e 7 14 
e 7 11 
e 7 9 
e 8 48 
e 8 35 
e 9 25 
e 9 18 
e 9 12 
e 10 44 
e 10 35 
e 10 31 
e 11 60 
e 11 41 
e 11 38 
e 11 35 
e 11 13 
e 12 57 
e 12 34 
e 12 33 
e 12 24 
e 12 22 
e 12 18 
e 13 60 
e 13 58 
e 13 51 
e 13 34 
e 14 60 
e 14 55 
e 14 52 
e 14 48 
e 14 42 
e 14 38 
e 14 20 
e 14 19 
e 15 55 
e 15 50 
e 16 59 
e 16 39 
e 16 32 
e 17 40 
e 17 36 
e 18 50 
e 18 48 
e 18 33 
e 18 32 
e 18 30 
e 19 60 
e 19 59 
e 19 55 
e 19 54 
e 19 39 
e 19 37 
e 19 36 
e 19 23 
e 20 51 
e 20 45 
e 20 44 
e 20 28 
e 20 26 
e 21 54 
e 21 36 
e 21 29 
e 21 25 
e 22 57 
e 22 55 
e 22 52 
e 23 57 
e 23 47 
e 23 40 
e 24 37 
e 24 35 
e 24 27 
e 25 45 
e 25 41 
e 25 37 
e 27 41 
e 28 34 
e 29 59 
e 29 45 
e 29 41 
e 29 35 
e 30 50 
e 30 42 
e 30 40 
e 30 31 
e 31 47 
e 31 45 
e 31 34 
e 32 56 
e 32 47 
e 32 35 
e 33 57 
e 33 56 
e 33 37 
e 33 36 
e 34 58 
e 34 49 
e 35 60 
e 35 55 
e 35 50 
e 35 40 
e 36 59 
e 39 48 
e 39 44 
e 40 43 
e 41 48 
e 41 42 
e 43 57 
e 44 58 
e 46 48 
e 47 57 
e 49 50 
e 52 55 
e 53 57 
e 53 54 
